Problem:    
Rows:       256
Columns:    89 (72 integer, 72 binary)
Non-zeros:  960
Status:     INTEGER OPTIMAL
Objective:  value = 14.349881 (MINimum)

   No.   Row name        Activity     Lower bound   Upper bound
------ ------------    ------------- ------------- -------------
     1 r.5                   1014.35             0               
     2 r.6                  -996.046      -998.371               
     3 r.7                   14.3499             0               
     4 r.8                   3.95415      -992.585               
     5 r.9                   14.3499             0               
     6 r.10                  12.0642       -998.16               
     7 r.11                  1014.35             0               
     8 r.12                 -989.785      -991.867               
     9 r.13                  1014.35             0               
    10 r.14                 -988.953      -997.398               
    11 r.15                  14.3499             0               
    12 r.16                  11.0466      -987.506               
    13 r.17                  1014.35             0               
    14 r.18                 -991.556      -998.748               
    15 r.19                  14.3499             0               
    16 r.20                 -991.698       -992.82               
    17 r.21                  1014.35             0               
    18 r.22                 -997.675      -998.797               
    19 r.23                  14.3499             0               
    20 r.24                  3.95415      -993.919               
    21 r.25                  1014.35             0               
    22 r.26                 -999.896      -999.896               
    23 r.27                  14.3499             0               
    24 r.28                  1.95365       -996.47               
    25 r.29                  1014.35             0               
    26 r.30                 -992.808      -996.762               
    27 r.31                  14.3499             0               
    28 r.32                  14.3499      -986.155               
    29 r.33                  1014.35             0               
    30 r.34                  -985.65      -996.697               
    31 r.35                  14.3499             0               
    32 r.36                  14.3499      -993.783               
    33 r.37                        1             1             = 
    34 r.38                        1             1             = 
    35 r.39                        1             1             = 
    36 r.40                        1             1             = 
    37 r.41                        1             1             = 
    38 r.42                        1             1             = 
    39 r.43                        1             1             = 
    40 r.44                        1             1             = 
    41 r.45                     1001             2               
    42 r.46                    -1001         -1001               
    43 r.47                  1008.11       -998.16               
    44 r.48                     1001             2               
    45 r.49                    -1001         -1001               
    46 r.50                  2006.26      -991.867               
    47 r.51                        2             2               
    48 r.52                       -2         -1001               
    49 r.53                 -992.908      -997.398               
    50 r.54                     1000             2               
    51 r.55                    -1000         -1001               
    52 r.56                  2007.09      -987.506               
    53 r.57                        2             2               
    54 r.58                       -2         -1001               
    55 r.59                  -995.51      -998.748               
    56 r.60                     1000             2               
    57 r.61                    -1000         -1001               
    58 r.62                  1004.35       -992.82               
    59 r.63                        2             2               
    60 r.64                       -2         -1001               
    61 r.65                 -1.62901      -998.797               
    62 r.66                     1000             2               
    63 r.67                    -1000         -1001               
    64 r.68                     2000      -993.919               
    65 r.69                 -997.168      -998.371               
    66 r.70                  2.83223      -992.585               
    67 r.71                 -997.168      -998.371               
    68 r.72                  2.83223      -992.585               
    69 r.73                 -996.762      -996.762               
    70 r.74                  10.3957      -986.155               
    71 r.75                 -996.762      -996.762               
    72 r.76                  10.3957      -986.155               
    73 r.77                        2             2               
    74 r.78                       -2         -1001               
    75 r.79                 -989.604      -996.697               
    76 r.80                     1000             2               
    77 r.81                    -1000         -1001               
    78 r.82                   2010.4      -993.783               
    79 r.83                     1001             2               
    80 r.84                    -1001         -1001               
    81 r.85                  2992.91       1.62901               
    82 r.86                     1001             2               
    83 r.87                    -1001         -1001               
    84 r.88                  1992.91       7.41456               
    85 r.89                     1001             2               
    86 r.90                    -1001         -1001               
    87 r.91                     2000      -997.398               
    88 r.92                     1001             2               
    89 r.93                    -1001         -1001               
    90 r.94                     2000      -987.506               
    91 r.95                     1001             2               
    92 r.96                    -1001         -1001               
    93 r.97                   1997.4      -998.748               
    94 r.98                     1001             2               
    95 r.99                    -1001         -1001               
    96 r.100                 997.256       -992.82               
    97 r.101                    1001             2               
    98 r.102                   -1001         -1001               
    99 r.103                 1991.28      -998.797               
   100 r.104                    1001             2               
   101 r.105                   -1001         -1001               
   102 r.106                 1992.91      -993.919               
   103 r.107                 10.9423       -998.16               
   104 r.108                -990.907      -991.867               
   105 r.109                 10.9423       -998.16               
   106 r.110                -990.907      -991.867               
   107 r.111                    1001             2               
   108 r.112                   -1001         -1001               
   109 r.113                 1996.15      -996.762               
   110 r.114                    1001             2               
   111 r.115                   -1001         -1001               
   112 r.116                  2003.3      -986.155               
   113 r.117                -996.697      -996.697               
   114 r.118                 3.30332      -993.783               
   115 r.119                -996.697      -996.697               
   116 r.120                 3.30332      -993.783               
   117 r.121                       2             2               
   118 r.122                      -2         -1001               
   119 r.123                 992.908       1.62901               
   120 r.124                    1000             2               
   121 r.125                   -1000         -1001               
   122 r.126                 1992.91       7.41456               
   123 r.127                    1001             2               
   124 r.128                   -1001         -1001               
   125 r.129                 2001.02       1.83988               
   126 r.130                    1001             2               
   127 r.131                   -1001         -1001               
   128 r.132                 1999.17       8.13265               
   129 r.133                -997.398      -997.398               
   130 r.134                 2.60217      -987.506               
   131 r.135                 2.74419      -997.398               
   132 r.136                 1002.74      -987.506               
   133 r.137                       2             2               
   134 r.138                      -2         -1001               
   135 r.139                -8.72142      -998.797               
   136 r.140                    1000             2               
   137 r.141                   -1000         -1001               
   138 r.142                 1992.91      -993.919               
   139 r.143                -990.075      -997.398               
   140 r.144                 9.92464      -987.506               
   141 r.145                -990.075      -997.398               
   142 r.146                 9.92464      -987.506               
   143 r.147                       2             2               
   144 r.148                      -2         -1001               
   145 r.149                -3.85436      -996.762               
   146 r.150                    1000             2               
   147 r.151                   -1000         -1001               
   148 r.152                  2003.3      -986.155               
   149 r.153                -996.697      -996.697               
   150 r.154                 3.30332      -993.783               
   151 r.155                -996.697      -996.697               
   152 r.156                 3.30332      -993.783               
   153 r.157                       2             2               
   154 r.158                      -2         -1001               
   155 r.159                  995.51       1.62901               
   156 r.160                    1000             2               
   157 r.161                   -1000         -1001               
   158 r.162                 2995.65       7.41456               
   159 r.163                    1001             2               
   160 r.164                   -1001         -1001               
   161 r.165                 2003.62       1.83988               
   162 r.166                    1001             2               
   163 r.167                   -1001         -1001               
   164 r.168                 3001.91       8.13265               
   165 r.169                       2             2               
   166 r.170                      -2         -1001               
   167 r.171                -6.11925      -998.797               
   168 r.172                    1000             2               
   169 r.173                   -1000         -1001               
   170 r.174                 2995.65      -993.919               
   171 r.175                -992.678      -998.748               
   172 r.176                 -992.82       -992.82               
   173 r.177                -992.678      -998.748               
   174 r.178                 -992.82       -992.82               
   175 r.179                       2             2               
   176 r.180                      -2         -1001               
   177 r.181                -1.25219      -996.762               
   178 r.182                    1000             2               
   179 r.183                   -1000         -1001               
   180 r.184                 3006.05      -986.155               
   181 r.185                -994.095      -996.697               
   182 r.186                 5.90549      -993.783               
   183 r.187                 6.04751      -996.697               
   184 r.188                 1006.05      -993.783               
   185 r.189                       2             2               
   186 r.190                      -2         -1001               
   187 r.191                 1.62901       1.62901               
   188 r.192                    1000             2               
   189 r.193                   -1000         -1001               
   190 r.194                    2000       7.41456               
   191 r.195                    1001             2               
   192 r.196                   -1001         -1001               
   193 r.197                 2009.74       1.83988               
   194 r.198                    1001             2               
   195 r.199                   -1001         -1001               
   196 r.200                 2006.26       8.13265               
   197 r.201                       2             2               
   198 r.202                      -2         -1001               
   199 r.203                 8.72142       2.60217               
   200 r.204                    1000             2               
   201 r.205                   -1000         -1001               
   202 r.206                 2007.09       12.4943               
   203 r.207                       2             2               
   204 r.208                      -2         -1001               
   205 r.209                 6.11925       1.25219               
   206 r.210                    1000             2               
   207 r.211                   -1000         -1001               
   208 r.212                 1004.35       7.18046               
   209 r.213                -998.797      -998.797               
   210 r.214                 2.83223      -993.919               
   211 r.215                -998.797      -998.797               
   212 r.216                 2.83223      -993.919               
   213 r.217                -995.133      -996.762               
   214 r.218                 12.0247      -986.155               
   215 r.219                -996.762      -996.762               
   216 r.220                 10.3957      -986.155               
   217 r.221                -987.975      -996.697               
   218 r.222                 12.0247      -993.783               
   219 r.223                -989.604      -996.697               
   220 r.224                 10.3957      -993.783               
   221 r.225                    1001             2               
   222 r.226                   -1001         -1001               
   223 r.227                 2004.87       1.83988               
   224 r.228                    1001             2               
   225 r.229                   -1001         -1001               
   226 r.230                 1995.86       8.13265               
   227 r.231                       2             2               
   228 r.232                      -2         -1001               
   229 r.233                 3.85436       2.60217               
   230 r.234                    1000             2               
   231 r.235                   -1000         -1001               
   232 r.236                  1996.7       12.4943               
   233 r.237                       2             2               
   234 r.238                      -2         -1001               
   235 r.239                 1.25219       1.25219               
   236 r.240                    1000             2               
   237 r.241                   -1000         -1001               
   238 r.242                 993.952       7.18046               
   239 r.243                       2             2               
   240 r.244                      -2         -1001               
   241 r.245                -992.842      -996.697               
   242 r.246                    1000             2               
   243 r.247                   -1000         -1001               
   244 r.248                    2000      -993.783               
   245 r.249                       2             2               
   246 r.250                      -2         -1001               
   247 r.251                 989.604       1.62901               
   248 r.252                    1000             2               
   249 r.253                   -1000         -1001               
   250 r.254                  1989.6       7.41456               
   251 r.255                       2             2               
   252 r.256                      -2         -1001               
   253 r.257                 992.842       3.23805               
   254 r.258                    1000             2               
   255 r.259                   -1000         -1001               
   256 r.260                    2000       13.8452               

   No. Column name       Activity     Lower bound   Upper bound
------ ------------    ------------- ------------- -------------
     1 tt                    14.3499             0               
     2 s_1_1        *              1             0             1 
     3 t_1_1                 10.3957             0               
     4 s_1_7        *              1             0             1 
     5 s_2_1        *              0             0             1 
     6 t_2_1                 10.3957             0               
     7 s_2_7        *              0             0             1 
     8 s_1_2        *              0             0             1 
     9 t_1_2                 3.30332             0               
    10 s_1_8        *              1             0             1 
    11 s_2_2        *              1             0             1 
    12 t_2_2                 3.30332             0               
    13 s_2_8        *              0             0             1 
    14 s_1_3        *              1             0             1 
    15 t_1_3                 3.30332             0               
    16 s_2_3        *              0             0             1 
    17 t_2_3                 3.30332             0               
    18 s_1_4        *              1             0             1 
    19 t_1_4                 5.90549             0               
    20 s_2_4        *              0             0             1 
    21 t_2_4                 1006.05             0               
    22 s_1_5        *              1             0             1 
    23 t_1_5                 12.0247             0               
    24 s_2_5        *              0             0             1 
    25 t_2_5                 10.3957             0               
    26 s_1_6        *              1             0             1 
    27 t_1_6                  13.228             0               
    28 s_2_6        *              0             0             1 
    29 t_2_6                  13.228             0               
    30 t_1_7                 7.15768             0               
    31 t_2_7                       0             0               
    32 t_1_8                       0             0               
    33 t_2_8                       0             0               
    34 r_1_1_2      *              1             0             1 
    35 u_1_1_2      *              1             0             1 
    36 r_2_1_2      *              1             0             1 
    37 u_2_1_2      *              0             0             1 
    38 r_1_1_3      *              0             0             1 
    39 u_1_1_3      *              1             0             1 
    40 r_2_1_3      *              1             0             1 
    41 u_2_1_3      *              0             0             1 
    42 r_1_1_4      *              0             0             1 
    43 u_1_1_4      *              1             0             1 
    44 r_2_1_4      *              1             0             1 
    45 u_2_1_4      *              0             0             1 
    46 r_1_1_5      *              0             0             1 
    47 u_1_1_5      *              0             0             1 
    48 r_2_1_5      *              1             0             1 
    49 u_2_1_5      *              0             0             1 
    50 r_1_1_8      *              0             0             1 
    51 u_1_1_8      *              1             0             1 
    52 r_2_1_8      *              1             0             1 
    53 u_2_1_8      *              0             0             1 
    54 r_1_2_3      *              1             0             1 
    55 u_1_2_3      *              0             0             1 
    56 r_2_2_3      *              1             0             1 
    57 u_2_2_3      *              0             0             1 
    58 r_1_2_4      *              1             0             1 
    59 u_1_2_4      *              0             0             1 
    60 r_2_2_4      *              1             0             1 
    61 u_2_2_4      *              0             0             1 
    62 r_1_2_5      *              1             0             1 
    63 u_1_2_5      *              0             0             1 
    64 r_2_2_5      *              1             0             1 
    65 u_2_2_5      *              0             0             1 
    66 r_1_2_7      *              1             0             1 
    67 u_1_2_7      *              0             0             1 
    68 r_2_2_7      *              1             0             1 
    69 u_2_2_7      *              0             0             1 
    70 r_1_3_5      *              0             0             1 
    71 u_1_3_5      *              0             0             1 
    72 r_2_3_5      *              1             0             1 
    73 u_2_3_5      *              0             0             1 
    74 r_1_3_7      *              0             0             1 
    75 u_1_3_7      *              0             0             1 
    76 r_2_3_7      *              1             0             1 
    77 u_2_3_7      *              0             0             1 
    78 r_1_4_5      *              0             0             1 
    79 u_1_4_5      *              0             0             1 
    80 r_2_4_5      *              1             0             1 
    81 u_2_4_5      *              0             0             1 
    82 r_1_4_7      *              0             0             1 
    83 u_1_4_7      *              0             0             1 
    84 r_2_4_7      *              1             0             1 
    85 u_2_4_7      *              0             0             1 
    86 r_1_7_8      *              0             0             1 
    87 u_1_7_8      *              1             0             1 
    88 r_2_7_8      *              1             0             1 
    89 u_2_7_8      *              0             0             1 

Integer feasibility conditions:

KKT.PE: max.abs.err = 4.55e-13 on row 81
        max.rel.err = 1.02e-16 on row 229
        High quality

KKT.PB: max.abs.err = 4.44e-16 on row 235
        max.rel.err = 1.97e-16 on row 235
        High quality

End of output
